This is Ipopt version 3.14.14, running with linear solver MUMPS 5.6.2.

Number of nonzeros in equality constraint Jacobian...:        0
Number of nonzeros in inequality constraint Jacobian.:        4
Number of nonzeros in Lagrangian Hessian.............:        0

Total number of variables............................:        2
                     variables with only lower bounds:        0
                variables with lower and upper bounds:        0
                     variables with only upper bounds:        0
Total number of equality constraints.................:        0
Total number of inequality constraints...............:        2
        inequality constraints with only lower bounds:        0
   inequality constraints with lower and upper bounds:        0
        inequality constraints with only upper bounds:        2

iter    objective    inf_pr   inf_du lg(mu)  ||d||  lg(rg) alpha_du alpha_pr  ls
   0  4.4000000e+00 0.00e+00 1.33e+00   0.0 0.00e+00    -  0.00e+00 0.00e+00   0
   1  2.4811543e+00 0.00e+00 1.05e+00  -5.8 1.11e+00    -  1.00e+00 9.90e-01f  1
   2 -4.1763342e+00 5.06e+00 1.08e+02  -1.9 2.50e+01    -  1.00e+00 1.59e-01f  1
   3 -1.6430324e+00 7.60e-02 1.14e+00  -3.2 2.26e+00    -  1.00e+00 9.90e-01h  1
   4 -1.6947812e+00 6.53e-02 4.76e-02  -9.8 4.67e-01    -  1.00e+00 1.00e+00h  1
   5 -1.6711702e+00 9.01e-03 2.03e-04  -7.0 1.97e-01    -  1.00e+00 1.00e+00h  1
   6 -1.6666668e+00 2.24e-07 2.77e-06  -8.8 5.37e-03    -  1.00e+00 1.00e+00h  1
   7 -1.6666667e+00 0.00e+00 4.11e-08 -11.0 2.40e-06    -  1.00e+00 1.00e+00h  1
   8 -1.6666667e+00 0.00e+00 2.48e-09 -11.0 2.41e-07    -  1.00e+00 1.00e+00h  1

Number of Iterations....: 8

                                   (scaled)                 (unscaled)
Objective...............:  -1.6666666716566747e+00   -1.6666666716566747e+00
Dual infeasibility......:   2.4848820778800018e-09    2.4848820778800018e-09
Constraint violation....:   0.0000000000000000e+00    0.0000000000000000e+00
Variable bound violation:   0.0000000000000000e+00    0.0000000000000000e+00
Complementarity.........:   1.0000000000120963e-11    1.0000000000120963e-11
Overall NLP error.......:   2.4848820778800018e-09    2.4848820778800018e-09


Number of objective function evaluations             = 9
Number of objective gradient evaluations             = 9
Number of equality constraint evaluations            = 0
Number of inequality constraint evaluations          = 9
Number of equality constraint Jacobian evaluations   = 0
Number of inequality constraint Jacobian evaluations = 9
Number of Lagrangian Hessian evaluations             = 0
Total seconds in IPOPT                               = 0.235

EXIT: Optimal Solution Found.
